80 14077364
69 31 9 11 13 60 30 62 24 26 77 47 27 36 34 65 3 14 18 59 70 49 50 61 6 51 37 2 8 7 46 38 48 19 44 73 41 68 5 1 55 76 57 71 21 25 75 32 33 29 56 79 43 67 58 74 12 23 15 39 64 45 35 22 80 17 10 40 66 53 63 16 42 28 72 54 4 20 52 78 
